(set-logic HORN)
(set-info :source |
    Benchmark: C_VC
    Output by Princess (http://www.philipp.ruemmer.org/princess.shtml)
|)
(set-info :status unsat)
(declare-heap Heap Addr HeapObject
 defObj
 ((HeapObject 0)) (
  (
   (O_Int (getInt Int))
   (O_UInt (getUInt Int))
   (O_Addr (getAddr Addr))
   (defObj)
  )
))
(declare-fun inv_main10 (Heap AddrRange Int) Bool)
(declare-fun inv_main15 (Heap AddrRange Int Int) Bool)
(declare-fun inv_main17 (Heap AddrRange Int Int) Bool)
(declare-fun inv_main19 (Heap AddrRange Int Int Int) Bool)
(declare-fun inv_main20 (Heap AddrRange Int Int Int) Bool)
(declare-fun inv_main21 (Heap AddrRange Int Int Int) Bool)
(declare-fun inv_main22 (Heap AddrRange Int Int Int Int) Bool)
(declare-fun inv_main3 (Heap AddrRange) Bool)
(declare-fun inv_main30 (Heap AddrRange Int Int Int) Bool)
(declare-fun inv_main31 (Heap AddrRange Int Int Int) Bool)
(declare-fun inv_main9 (Heap AddrRange Int) Bool)
(assert (forall ((var0 AddrRange) (var1 Int) (var2 Heap) (var3 Heap)) (or (not (and (and (= var3 emptyHeap) (= var2 (newBatchHeap (batchAlloc emptyHeap (O_Int var1) 100000)))) (= var0 (newAddrRange (batchAlloc emptyHeap (O_Int var1) 100000))))) (inv_main3 var2 var0))))
(assert (forall ((var0 Int) (var1 AddrRange) (var2 Heap)) (or (not (and (inv_main3 var2 var1) (= var0 0))) (inv_main9 var2 var1 var0))))
(assert (forall ((var0 Int) (var1 AddrRange) (var2 Int) (var3 Heap) (var4 Int) (var5 Int) (var6 AddrRange) (var7 Heap)) (or (not (and (inv_main9 var7 var6 var5) (and (and (<= 0 (+ (+ 100000 (* (- 1) (+ var4 1))) (- 1))) (and (and (is-O_Int (read var7 (nthAddrRange var6 var5))) (is-O_Int (read var7 (nthAddrRange var6 var5)))) (and (and (= var3 (write var7 (nthAddrRange var6 var5) (O_Int var2))) (= var1 var6)) (= var4 var5)))) (= var0 (+ var4 1))))) (inv_main9 var3 var1 var0))))
(assert (forall ((var0 Int) (var1 Int) (var2 Int) (var3 AddrRange) (var4 Heap)) (or (not (and (inv_main17 var4 var3 var2 var1) (and (is-O_Int (read var4 (nthAddrRange var3 var1))) (= var0 (getInt (read var4 (nthAddrRange var3 var1))))))) (inv_main20 var4 var3 var2 var1 var0))))
(assert (forall ((var0 Int) (var1 Int) (var2 Int) (var3 Int) (var4 AddrRange) (var5 Heap) (var6 Int) (var7 Int) (var8 Int) (var9 Int) (var10 AddrRange) (var11 Heap)) (or (not (and (inv_main21 var11 var10 var9 var8 var7) (and (and (and (<= 0 (+ (+ 100000 (* (- 1) (+ var6 1))) (- 1))) (and (and (is-O_Int (read var11 (nthAddrRange var10 (+ var8 (- 1))))) (is-O_Int (read var11 (nthAddrRange var10 (+ var8 (- 1)))))) (and (and (and (and (= var5 (write var11 (nthAddrRange var10 (+ var8 (- 1))) (O_Int var7))) (= var4 var10)) (= var3 var9)) (= var6 var8)) (= var2 var7)))) (= var1 1)) (= var0 (+ var6 1))))) (inv_main15 var5 var4 var1 var0))))
(assert (forall ((var0 Int) (var1 Int) (var2 Int) (var3 Int) (var4 AddrRange) (var5 Heap)) (or (not (and (inv_main19 var5 var4 var3 var2 var1) (and (and (<= 0 (+ (+ 100000 (* (- 1) (+ var2 1))) (- 1))) (and (is-O_Int (read var5 (nthAddrRange var4 var2))) (not (<= 0 (+ (+ (getInt (read var5 (nthAddrRange var4 var2))) (* (- 1) var1)) (- 1)))))) (= var0 (+ var2 1))))) (inv_main15 var5 var4 var3 var0))))
(assert (forall ((var0 Int) (var1 Int) (var2 Int) (var3 AddrRange) (var4 Heap)) (or (not (and (inv_main10 var4 var3 var2) (and (and (not (= var2 0)) (= var1 0)) (= var0 1)))) (inv_main15 var4 var3 var1 var0))))
(assert (forall ((var0 Heap) (var1 Int) (var2 Int) (var3 Int) (var4 Int) (var5 AddrRange) (var6 Heap)) (or (not (and (inv_main22 var6 var5 var4 var3 var2 var1) (and (and (is-O_Int (read var6 (nthAddrRange var5 var3))) (is-O_Int (read var6 (nthAddrRange var5 var3)))) (= var0 (write var6 (nthAddrRange var5 var3) (O_Int var1)))))) (inv_main21 var0 var5 var4 var3 var2))))
(assert (forall ((var0 Int) (var1 Int) (var2 Int) (var3 Int) (var4 AddrRange) (var5 Heap)) (or (not (and (inv_main20 var5 var4 var3 var2 var1) (and (is-O_Int (read var5 (nthAddrRange var4 (+ var2 (- 1))))) (= var0 (getInt (read var5 (nthAddrRange var4 (+ var2 (- 1))))))))) (inv_main22 var5 var4 var3 var2 var1 var0))))
(assert (forall ((var0 Int) (var1 Int) (var2 Int) (var3 AddrRange) (var4 Heap)) (or (not (and (inv_main30 var4 var3 var2 var1 var0) (<= 0 (+ (+ 100000 (* (- 1) var0)) (- 1))))) (inv_main31 var4 var3 var2 var1 var0))))
(assert (forall ((var0 Int) (var1 Int) (var2 Int) (var3 AddrRange) (var4 Heap)) (or (not (and (inv_main19 var4 var3 var2 var1 var0) (and (is-O_Int (read var4 (nthAddrRange var3 var1))) (<= 0 (+ (+ (getInt (read var4 (nthAddrRange var3 var1))) (* (- 1) var0)) (- 1)))))) (inv_main17 var4 var3 var2 var1))))
(assert (forall ((var0 Int) (var1 Int) (var2 Int) (var3 Int) (var4 AddrRange) (var5 Heap)) (or (not (and (inv_main31 var5 var4 var3 var2 var1) (and (and (is-O_Int (read var5 (nthAddrRange var4 var2))) (is-O_Int (read var5 (nthAddrRange var4 var1)))) (= var0 (+ var1 1))))) (inv_main30 var5 var4 var3 var2 var0))))
(assert (forall ((var0 Int) (var1 Int) (var2 Int) (var3 Int) (var4 Int) (var5 AddrRange) (var6 Heap)) (or (not (and (inv_main30 var6 var5 var4 var3 var2) (and (and (and (<= 0 (+ (+ 100000 (* (- 1) (+ var3 1))) (- 1))) (not (<= 0 (+ (+ 100000 (* (- 1) var2)) (- 1))))) (= var1 (+ var3 1))) (= var0 (+ (+ var3 1) 1))))) (inv_main30 var6 var5 var4 var1 var0))))
(assert (forall ((var0 Int) (var1 Int) (var2 Int) (var3 AddrRange) (var4 Heap)) (or (not (and (inv_main10 var4 var3 var2) (and (and (= var2 0) (= var1 0)) (= var0 1)))) (inv_main30 var4 var3 var2 var1 var0))))
(assert (forall ((var0 Int) (var1 Int) (var2 Int) (var3 AddrRange) (var4 Heap) (var5 Int) (var6 Int) (var7 Int) (var8 Int) (var9 AddrRange) (var10 Heap)) (or (not (and (inv_main21 var10 var9 var8 var7 var6) (and (and (not (<= 0 (+ (+ 100000 (* (- 1) (+ var5 1))) (- 1)))) (and (and (is-O_Int (read var10 (nthAddrRange var9 (+ var7 (- 1))))) (is-O_Int (read var10 (nthAddrRange var9 (+ var7 (- 1)))))) (and (and (and (and (= var4 (write var10 (nthAddrRange var9 (+ var7 (- 1))) (O_Int var6))) (= var3 var9)) (= var2 var8)) (= var5 var7)) (= var1 var6)))) (= var0 1)))) (inv_main10 var4 var3 var0))))
(assert (forall ((var0 Int) (var1 Int) (var2 Int) (var3 AddrRange) (var4 Heap)) (or (not (and (inv_main19 var4 var3 var2 var1 var0) (and (not (<= 0 (+ (+ 100000 (* (- 1) (+ var1 1))) (- 1)))) (and (is-O_Int (read var4 (nthAddrRange var3 var1))) (not (<= 0 (+ (+ (getInt (read var4 (nthAddrRange var3 var1))) (* (- 1) var0)) (- 1)))))))) (inv_main10 var4 var3 var2))))
(assert (forall ((var0 Int) (var1 AddrRange) (var2 Int) (var3 Heap) (var4 Int) (var5 Int) (var6 AddrRange) (var7 Heap)) (or (not (and (inv_main9 var7 var6 var5) (and (and (not (<= 0 (+ (+ 100000 (* (- 1) (+ var4 1))) (- 1)))) (and (and (is-O_Int (read var7 (nthAddrRange var6 var5))) (is-O_Int (read var7 (nthAddrRange var6 var5)))) (and (and (= var3 (write var7 (nthAddrRange var6 var5) (O_Int var2))) (= var1 var6)) (= var4 var5)))) (= var0 1)))) (inv_main10 var3 var1 var0))))
(assert (forall ((var0 Int) (var1 Int) (var2 Int) (var3 AddrRange) (var4 Heap)) (or (not (and (inv_main15 var4 var3 var2 var1) (and (is-O_Int (read var4 (nthAddrRange var3 (+ var1 (- 1))))) (= var0 (getInt (read var4 (nthAddrRange var3 (+ var1 (- 1))))))))) (inv_main19 var4 var3 var2 var1 var0))))
(assert (forall ((var0 Int) (var1 AddrRange) (var2 Heap)) (not (and (inv_main9 var2 var1 var0) (not (is-O_Int (read var2 (nthAddrRange var1 var0))))))))
(assert (forall ((var0 Int) (var1 AddrRange) (var2 Heap)) (not (and (inv_main9 var2 var1 var0) (and (is-O_Int (read var2 (nthAddrRange var1 var0))) (not (within var1 (nthAddrRange var1 var0))))))))
(assert (forall ((var0 Int) (var1 AddrRange) (var2 Heap)) (not (and (inv_main9 var2 var1 var0) (and (is-O_Int (read var2 (nthAddrRange var1 var0))) (not (is-O_Int (read var2 (nthAddrRange var1 var0)))))))))
(assert (forall ((var0 Int) (var1 Int) (var2 AddrRange) (var3 Heap)) (not (and (inv_main15 var3 var2 var1 var0) (not (is-O_Int (read var3 (nthAddrRange var2 (+ var0 (- 1))))))))))
(assert (forall ((var0 Int) (var1 Int) (var2 AddrRange) (var3 Heap)) (not (and (inv_main15 var3 var2 var1 var0) (and (is-O_Int (read var3 (nthAddrRange var2 (+ var0 (- 1))))) (not (within var2 (nthAddrRange var2 (+ var0 (- 1))))))))))
(assert (forall ((var0 Int) (var1 Int) (var2 Int) (var3 AddrRange) (var4 Heap)) (not (and (inv_main19 var4 var3 var2 var1 var0) (not (is-O_Int (read var4 (nthAddrRange var3 var1))))))))
(assert (forall ((var0 Int) (var1 Int) (var2 Int) (var3 AddrRange) (var4 Heap)) (not (and (inv_main19 var4 var3 var2 var1 var0) (and (is-O_Int (read var4 (nthAddrRange var3 var1))) (not (within var3 (nthAddrRange var3 var1))))))))
(assert (forall ((var0 Int) (var1 Int) (var2 AddrRange) (var3 Heap)) (not (and (inv_main17 var3 var2 var1 var0) (not (is-O_Int (read var3 (nthAddrRange var2 var0))))))))
(assert (forall ((var0 Int) (var1 Int) (var2 AddrRange) (var3 Heap)) (not (and (inv_main17 var3 var2 var1 var0) (and (is-O_Int (read var3 (nthAddrRange var2 var0))) (not (within var2 (nthAddrRange var2 var0))))))))
(assert (forall ((var0 Int) (var1 Int) (var2 Int) (var3 AddrRange) (var4 Heap)) (not (and (inv_main20 var4 var3 var2 var1 var0) (not (is-O_Int (read var4 (nthAddrRange var3 (+ var1 (- 1))))))))))
(assert (forall ((var0 Int) (var1 Int) (var2 Int) (var3 AddrRange) (var4 Heap)) (not (and (inv_main20 var4 var3 var2 var1 var0) (and (is-O_Int (read var4 (nthAddrRange var3 (+ var1 (- 1))))) (not (within var3 (nthAddrRange var3 (+ var1 (- 1))))))))))
(assert (forall ((var0 Int) (var1 Int) (var2 Int) (var3 Int) (var4 AddrRange) (var5 Heap)) (not (and (inv_main22 var5 var4 var3 var2 var1 var0) (not (is-O_Int (read var5 (nthAddrRange var4 var2))))))))
(assert (forall ((var0 Int) (var1 Int) (var2 Int) (var3 Int) (var4 AddrRange) (var5 Heap)) (not (and (inv_main22 var5 var4 var3 var2 var1 var0) (and (is-O_Int (read var5 (nthAddrRange var4 var2))) (not (within var4 (nthAddrRange var4 var2))))))))
(assert (forall ((var0 Int) (var1 Int) (var2 Int) (var3 Int) (var4 AddrRange) (var5 Heap)) (not (and (inv_main22 var5 var4 var3 var2 var1 var0) (and (is-O_Int (read var5 (nthAddrRange var4 var2))) (not (is-O_Int (read var5 (nthAddrRange var4 var2)))))))))
(assert (forall ((var0 Int) (var1 Int) (var2 Int) (var3 AddrRange) (var4 Heap)) (not (and (inv_main21 var4 var3 var2 var1 var0) (not (is-O_Int (read var4 (nthAddrRange var3 (+ var1 (- 1))))))))))
(assert (forall ((var0 Int) (var1 Int) (var2 Int) (var3 AddrRange) (var4 Heap)) (not (and (inv_main21 var4 var3 var2 var1 var0) (and (is-O_Int (read var4 (nthAddrRange var3 (+ var1 (- 1))))) (not (within var3 (nthAddrRange var3 (+ var1 (- 1))))))))))
(assert (forall ((var0 Int) (var1 Int) (var2 Int) (var3 AddrRange) (var4 Heap)) (not (and (inv_main21 var4 var3 var2 var1 var0) (and (is-O_Int (read var4 (nthAddrRange var3 (+ var1 (- 1))))) (not (is-O_Int (read var4 (nthAddrRange var3 (+ var1 (- 1)))))))))))
(assert (forall ((var0 Int) (var1 Int) (var2 Int) (var3 AddrRange) (var4 Heap)) (not (and (inv_main31 var4 var3 var2 var1 var0) (not (is-O_Int (read var4 (nthAddrRange var3 var1))))))))
(assert (forall ((var0 Int) (var1 Int) (var2 Int) (var3 AddrRange) (var4 Heap)) (not (and (inv_main31 var4 var3 var2 var1 var0) (not (within var3 (nthAddrRange var3 var1)))))))
(assert (forall ((var0 Int) (var1 Int) (var2 Int) (var3 AddrRange) (var4 Heap)) (not (and (inv_main31 var4 var3 var2 var1 var0) (not (is-O_Int (read var4 (nthAddrRange var3 var0))))))))
(assert (forall ((var0 Int) (var1 Int) (var2 Int) (var3 AddrRange) (var4 Heap)) (not (and (inv_main31 var4 var3 var2 var1 var0) (not (within var3 (nthAddrRange var3 var0)))))))
(assert (forall ((var0 Int) (var1 Int) (var2 Int) (var3 AddrRange) (var4 Heap)) (not (and (inv_main31 var4 var3 var2 var1 var0) (not (is-O_Int (read var4 (nthAddrRange var3 var1))))))))
(assert (forall ((var0 Int) (var1 Int) (var2 Int) (var3 AddrRange) (var4 Heap)) (not (and (inv_main31 var4 var3 var2 var1 var0) (and (is-O_Int (read var4 (nthAddrRange var3 var1))) (not (within var3 (nthAddrRange var3 var1))))))))
(assert (forall ((var0 Int) (var1 Int) (var2 Int) (var3 AddrRange) (var4 Heap)) (not (and (inv_main31 var4 var3 var2 var1 var0) (and (is-O_Int (read var4 (nthAddrRange var3 var1))) (not (is-O_Int (read var4 (nthAddrRange var3 var0)))))))))
(assert (forall ((var0 Int) (var1 Int) (var2 Int) (var3 AddrRange) (var4 Heap)) (not (and (inv_main31 var4 var3 var2 var1 var0) (and (and (is-O_Int (read var4 (nthAddrRange var3 var1))) (is-O_Int (read var4 (nthAddrRange var3 var0)))) (not (within var3 (nthAddrRange var3 var0))))))))
(assert (forall ((var0 Int) (var1 Int) (var2 Int) (var3 AddrRange) (var4 Heap)) (not (and (inv_main31 var4 var3 var2 var1 var0) (and (and (is-O_Int (read var4 (nthAddrRange var3 var1))) (is-O_Int (read var4 (nthAddrRange var3 var0)))) (not (<= 0 (+ (getInt (read var4 (nthAddrRange var3 var0))) (* (- 1) (getInt (read var4 (nthAddrRange var3 var1))))))))))))
(check-sat)
